Minimize
 obj: 	1.0 x4 + 2.0 x64
Subject To
	-1.0 x3 + 1.0 x7 = 0.0
	-1.0 x3 + 1.0 x11 = 0.0
	-1.0 x3 + 1.0 x19 = 0.0
	-1.0 x3 + 1.0 x35 = 0.0
	-1.0 x3 + 1.0 x67 = 0.0
	-1.0 x3 + 1.0 x131 = 0.0
	-1.0 x3 + 1.0 x259 = 0.0
	-1.0 x3 + 1.0 x515 = 0.0
	-1.0 x3 + 1.0 x1027 = 0.0
	-1.0 x3 + 1.0 x2051 = 0.0
	-1.0 x3 + 1.0 x4099 = 0.0
	-1.0 x36 + 1.0 x37 = 0.0
	-1.0 x40 + 1.0 x41 = 0.0
	-1.0 x48 + 1.0 x49 = 0.0
	-1.0 x68 + 1.0 x69 = 0.0
	-1.0 x72 + 1.0 x73 = 0.0
	-1.0 x80 + 1.0 x82 = 0.0
	-1.0 x132 + 1.0 x133 = 0.0
	-1.0 x136 + 1.0 x138 = 0.0
	-1.0 x144 + 1.0 x145 = 0.0
	-1.0 x260 + 1.0 x261 = 0.0
	-1.0 x264 + 1.0 x266 = 0.0
	-1.0 x272 + 1.0 x274 = 0.0
	-1.0 x516 + 1.0 x518 = 0.0
	-1.0 x520 + 1.0 x521 = 0.0
	-1.0 x528 + 1.0 x529 = 0.0
	-1.0 x1028 + 1.0 x1030 = 0.0
	-1.0 x1032 + 1.0 x1033 = 0.0
	-1.0 x1040 + 1.0 x1042 = 0.0
	-1.0 x2052 + 1.0 x2054 = 0.0
	-1.0 x2056 + 1.0 x2058 = 0.0
	-1.0 x2064 + 1.0 x2065 = 0.0
	-1.0 x4100 + 1.0 x4102 = 0.0
	-1.0 x4104 + 1.0 x4106 = 0.0
	-1.0 x4112 + 1.0 x4114 = 0.0
	1.0 x1 = 1.0
	1.0 x3 = 2.0
End